Maximize
  1 12dhchol_c + 1 hco3_e 
Subject To
  1 12dhchol_c + 1 hco3_e - 1 12dhchol_e - 1 hco3_c = 2000
Bounds
  12dhcol_c <= 1000
  hco3_e <= 300
  12dhchol_e <= 430
  hco3_c <= 460
Integers
  12dhchol_c hco3_e 12dhchol_e hco3_c
End
